NAME: clu_20_7
TYPE: TSP
DIMENSION: 20
EDGE_WEIGHT_TYPE: EUC_2D
NODE_COORD_SECTION
1 24 50
2 45 55
3 14 49
4 76 59
5 88 23
6 18 56
7 56 82
8 74 14
9 21 52
10 18 57
11 72 54
12 63 85
13 80 68
14 85 53
15 93 64
16 60 92
17 84 73
18 83 59
19 29 52
20 25 56
EOF
